NAME          DCAP_3_4_2_500_SS119
ROWS
 N  OBJ
 L  CON1
 L  CON2
 L  CON3
 L  CON4
 L  CON5
 L  CON6
 L  CON7
 L  CON8
 L  CON9
 L  CON10
 L  CON11
 L  CON12
 E  CON13
 E  CON14
 E  CON15
 E  CON16
 E  CON17
 E  CON18
 E  CON19
 E  CON20
COLUMNS
    x[1,1]    OBJ       6.180167      CON1      1.000000    
    x[1,1]    CON7      -1.000000     CON8      -1.000000   
    x[1,2]    OBJ       5.039546      CON2      1.000000    
    x[1,2]    CON8      -1.000000   
    x[2,1]    OBJ       6.732585      CON3      1.000000    
    x[2,1]    CON9      -1.000000     CON10     -1.000000   
    x[2,2]    OBJ       7.443064      CON4      1.000000    
    x[2,2]    CON10     -1.000000   
    x[3,1]    OBJ       6.563535      CON5      1.000000    
    x[3,1]    CON11     -1.000000     CON12     -1.000000   
    x[3,2]    OBJ       6.054841      CON6      1.000000    
    x[3,2]    CON12     -1.000000   
    MARKER    'MARKER'                'INTORG'
    u[1,1]    OBJ       48.076654     CON1      -1.000000   
    u[1,2]    OBJ       49.466655     CON2      -1.000000   
    u[2,1]    OBJ       49.996186     CON3      -1.000000   
    u[2,2]    OBJ       32.230043     CON4      -1.000000   
    u[3,1]    OBJ       20.066487     CON5      -1.000000   
    u[3,2]    OBJ       27.484319     CON6      -1.000000   
    y[1,1,1]  OBJ       7.233597      CON7      0.979391    
    y[1,1,1]  CON13     1.000000    
    y[1,1,2]  OBJ       7.684782      CON8      0.946587    
    y[1,1,2]  CON14     1.000000    
    y[1,2,1]  OBJ       6.373650      CON7      0.505708    
    y[1,2,1]  CON15     1.000000    
    y[1,2,2]  OBJ       6.364670      CON8      1.428011    
    y[1,2,2]  CON16     1.000000    
    y[1,3,1]  OBJ       7.223755      CON7      0.783248    
    y[1,3,1]  CON17     1.000000    
    y[1,3,2]  OBJ       9.362203      CON8      0.786960    
    y[1,3,2]  CON18     1.000000    
    y[1,4,1]  OBJ       7.358757      CON7      0.837901    
    y[1,4,1]  CON19     1.000000    
    y[1,4,2]  OBJ       7.371125      CON8      1.388602    
    y[1,4,2]  CON20     1.000000    
    y[2,1,1]  OBJ       8.279629      CON9      0.979391    
    y[2,1,1]  CON13     1.000000    
    y[2,1,2]  OBJ       9.754225      CON10     0.946587    
    y[2,1,2]  CON14     1.000000    
    y[2,2,1]  OBJ       8.094998      CON9      0.505708    
    y[2,2,1]  CON15     1.000000    
    y[2,2,2]  OBJ       9.648381      CON10     1.428011    
    y[2,2,2]  CON16     1.000000    
    y[2,3,1]  OBJ       7.528209      CON9      0.783248    
    y[2,3,1]  CON17     1.000000    
    y[2,3,2]  OBJ       6.945571      CON10     0.786960    
    y[2,3,2]  CON18     1.000000    
    y[2,4,1]  OBJ       8.480092      CON9      0.837901    
    y[2,4,1]  CON19     1.000000    
    y[2,4,2]  OBJ       8.916407      CON10     1.388602    
    y[2,4,2]  CON20     1.000000    
    y[3,1,1]  OBJ       8.362559      CON11     0.979391    
    y[3,1,1]  CON13     1.000000    
    y[3,1,2]  OBJ       5.339596      CON12     0.946587    
    y[3,1,2]  CON14     1.000000    
    y[3,2,1]  OBJ       5.800603      CON11     0.505708    
    y[3,2,1]  CON15     1.000000    
    y[3,2,2]  OBJ       8.042920      CON12     1.428011    
    y[3,2,2]  CON16     1.000000    
    y[3,3,1]  OBJ       6.545026      CON11     0.783248    
    y[3,3,1]  CON17     1.000000    
    y[3,3,2]  OBJ       6.815648      CON12     0.786960    
    y[3,3,2]  CON18     1.000000    
    y[3,4,1]  OBJ       8.942368      CON11     0.837901    
    y[3,4,1]  CON19     1.000000    
    y[3,4,2]  OBJ       8.704512      CON12     1.388602    
    y[3,4,2]  CON20     1.000000    
    z[1,1]    OBJ       763.054037    CON13     1.000000    
    z[1,2]    OBJ       557.208919    CON14     1.000000    
    z[2,1]    OBJ       930.271768    CON15     1.000000    
    z[2,2]    OBJ       724.997786    CON16     1.000000    
    z[3,1]    OBJ       736.923072    CON17     1.000000    
    z[3,2]    OBJ       701.485058    CON18     1.000000    
    z[4,1]    OBJ       869.870025    CON19     1.000000    
    z[4,2]    OBJ       894.296807    CON20     1.000000    
    MARKER    'MARKER'                 'INTEND'
RHS
    RHS       CON1      -0.000000     CON2      -0.000000   
    RHS       CON3      -0.000000     CON4      -0.000000   
    RHS       CON5      -0.000000     CON6      -0.000000   
    RHS       CON7      -0.000000     CON8      -0.000000   
    RHS       CON9      -0.000000     CON10     -0.000000   
    RHS       CON11     -0.000000     CON12     -0.000000   
    RHS       CON13     1.000000      CON14     1.000000    
    RHS       CON15     1.000000      CON16     1.000000    
    RHS       CON17     1.000000      CON18     1.000000    
    RHS       CON19     1.000000      CON20     1.000000    
BOUNDS
 BV BOUND     u[1,1]  
 BV BOUND     u[1,2]  
 BV BOUND     u[2,1]  
 BV BOUND     u[2,2]  
 BV BOUND     u[3,1]  
 BV BOUND     u[3,2]  
 BV BOUND     y[1,1,1]
 BV BOUND     y[1,1,2]
 BV BOUND     y[1,2,1]
 BV BOUND     y[1,2,2]
 BV BOUND     y[1,3,1]
 BV BOUND     y[1,3,2]
 BV BOUND     y[1,4,1]
 BV BOUND     y[1,4,2]
 BV BOUND     y[2,1,1]
 BV BOUND     y[2,1,2]
 BV BOUND     y[2,2,1]
 BV BOUND     y[2,2,2]
 BV BOUND     y[2,3,1]
 BV BOUND     y[2,3,2]
 BV BOUND     y[2,4,1]
 BV BOUND     y[2,4,2]
 BV BOUND     y[3,1,1]
 BV BOUND     y[3,1,2]
 BV BOUND     y[3,2,1]
 BV BOUND     y[3,2,2]
 BV BOUND     y[3,3,1]
 BV BOUND     y[3,3,2]
 BV BOUND     y[3,4,1]
 BV BOUND     y[3,4,2]
 BV BOUND     z[1,1]  
 BV BOUND     z[1,2]  
 BV BOUND     z[2,1]  
 BV BOUND     z[2,2]  
 BV BOUND     z[3,1]  
 BV BOUND     z[3,2]  
 BV BOUND     z[4,1]  
 BV BOUND     z[4,2]  
ENDATA
